20
5
20676
622 93 279 148 67
true
0.25
44 38 30 28 48 34 34 44 49 36 44 50 38 8 46 40 42 22 42 10
10 13 24 13 23 35 16 39 40 49 48 13 40 32 19 37 26 19 23 16
11 34 30 24 12 14 38 23 26 43 45 23 28 9 6 12 48 34 14 21
23 15 8 14 10 5 16 5 2 25 13 43 40 14 13 49 6 35 39 13
12 22 8 44 22 33 28 39 24 12 13 8 36 3 39 41 32 13 1 18
-67 -29 28 54 -72 92 -4 -34 21 53 -92 26 43 -77 -95 -34 97 -4 -58 39
0 0 0 0 99 81 0 0 -35 46 0 0 0 0 0 0 0 0 0 0
0 0 0 0 0 22 0 0 73 0 0 0 54 0 -33 0 0 0 0
0 0 75 0 0 0 -93 0 0 12 -74 0 0 0 0 0 0 0
0 0 0 0 0 0 -38 0 0 0 -11 0 0 0 0 0 0
0 0 0 -11 0 81 0 0 0 0 0 90 0 0 0 0
0 0 0 0 0 0 0 0 0 0 95 0 0 0 8
0 0 0 -13 0 0 0 0 0 0 0 0 -58 0
0 0 0 0 0 0 0 5 0 0 0 0 0
0 0 0 15 0 0 0 74 0 71 0 9
0 0 0 0 0 0 -71 0 0 0 0
0 65 0 0 0 0 0 -3 -68 0
0 0 0 -29 -59 12 0 0 19
0 0 0 0 4 0 0 0
0 0 0 0 -71 0 0
0 0 0 0 0 0
0 0 0 0 0
0 0 0 0
0 77 -38
0 0
0 0 0 0 10 0 0 0 63 -60 0 -50 -53 0 0 -86 -96 0 0
0 0 0 0 -23 0 0 -98 26 0 0 87 -29 0 0 -10 0 0
0 0 0 0 0 19 0 0 -18 56 0 0 0 0 0 -65 -14
0 0 0 0 71 0 0 0 0 0 0 0 75 0 -1 0
0 0 0 0 0 0 0 0 0 -91 0 0 0 0 0
0 0 -30 0 0 0 0 0 0 53 0 0 -62 -61
0 7 0 0 0 69 0 0 0 0 0 0 0
0 0 -27 0 0 0 0 0 0 0 -19 0
0 0 0 0 0 0 -51 0 0 75 -91
0 0 0 0 0 0 0 0 0 0
0 0 -56 0 0 0 12 -84 0
0 0 -44 0 -39 0 0 -58
0 50 0 0 0 -65 0
0 93 0 0 0 0
0 0 0 0 68
0 0 0 0
0 0 0
0 0
0
0 0 0 0 -73 0 -76 -58 0 27 -35 0 95 0 0 -79 0 0
0 54 0 0 0 0 53 0 0 0 0 0 0 0 48 -78 0
0 0 0 0 0 0 0 0 67 0 56 0 0 0 0 25
0 0 72 0 0 -11 0 -72 0 -60 0 0 0 0 0
0 0 0 0 0 -29 0 0 -52 0 0 0 0 0
0 16 0 0 0 0 0 0 48 66 0 0 0
0 0 0 0 11 0 0 0 0 0 91 0
0 98 -22 0 0 0 0 -61 -44 0 76
0 0 0 0 84 0 0 100 -78 0
0 0 0 0 0 0 0 0 100
0 0 0 13 0 0 0 -28
0 -31 0 0 90 0 0
0 51 0 -15 0 0
0 0 0 0 0
0 0 0 0
0 0 0
0 0
0
0 0 0 0 0 -11 0 -3 0 0 0 0 43 78 0 67 0
0 93 37 0 0 0 0 0 0 0 0 0 0 0 -24 0
0 65 0 0 83 0 0 0 0 0 -96 0 0 0 0
0 69 -40 0 0 0 0 0 92 0 0 0 -70 88
0 0 -26 0 14 0 61 0 0 -32 0 0 0
0 0 0 0 0 -38 0 -75 0 0 0 0
0 0 0 0 50 0 0 0 0 0 -62
0 0 0 0 0 0 49 0 0 0
0 -39 0 31 0 -33 0 0 60
0 -64 0 70 0 0 0 0
0 1 0 0 0 0 0
0 8 5 0 11 0
0 0 0 0 62
0 0 0 0
0 -93 0
0 -83
0
0 0 -88 -64 -54 48 0 0 -54 0 0 0 9 0 0 66
0 0 -49 0 84 0 0 0 90 -63 -55 81 -89 0 -6
0 0 0 0 0 -60 0 0 0 0 0 15 0 17
0 0 0 41 0 0 0 0 0 -50 0 0 0
0 0 -52 -31 0 0 0 27 0 0 0 0
0 0 0 -55 0 0 0 0 0 0 -28
0 0 0 0 0 0 -73 0 0 0
0 0 0 29 -43 0 -79 -42 0
0 -86 0 -5 0 0 0 0
0 0 0 90 0 0 0
0 67 -88 0 0 0
0 0 0 45 0
0 0 0 0
0 51 0
0 0
0
0 0 0 24 -79 0 0 -35 0 0 0 -49 0 -89 -65
0 71 45 0 -90 0 0 0 0 0 0 0 0 0
0 0 0 0 0 -1 -75 0 0 -64 0 -61 0
0 0 0 87 0 0 19 0 0 0 0 0
0 0 0 0 92 76 0 0 0 77 0
0 0 0 33 0 14 -82 0 0 0
0 0 35 0 0 0 0 -45 0
0 0 0 0 0 0 0 0
0 0 -84 0 0 0 0
0 0 -9 0 0 0
0 0 0 0 0
0 0 0 0
0 0 53
0 0
0
0 60 0 0 0 0 0 0 0 0 16 0 0 -83
0 0 85 0 0 0 54 32 58 0 0 0 0
0 -3 0 0 -81 0 0 0 0 0 55 -18
0 0 45 0 0 0 0 2 0 0 -32
0 0 0 -69 0 0 0 0 0 0
0 0 94 0 0 0 0 -84 0
0 0 0 -34 0 0 0 1
0 0 0 4 0 0 -51
0 0 67 3 0 0
0 0 0 0 0
0 0 0 0
0 0 0
0 -79
0
0 0 0 0 33 0 -91 0 0 53 0 0 0
0 0 100 0 0 0 0 0 0 83 0 0
0 0 26 0 0 0 0 0 0 0 0
0 0 0 0 0 0 -8 0 -55 0
0 -37 0 0 0 58 0 0 38
0 0 0 0 0 0 0 0
0 0 0 49 0 0 0
0 0 0 41 0 30
0 0 0 0 0
0 0 0 0
0 0 -61
0 0
0
0 0 0 0 0 0 0 -3 37 -100 0 0
0 0 0 -4 0 0 0 65 -54 -15 0
0 0 0 -65 0 0 0 0 0 0
0 0 45 -78 0 86 0 0 0
0 0 0 0 0 0 0 0
0 0 0 0 0 0 0
0 -29 56 -91 0 0
0 0 0 0 0
0 0 17 0
0 0 0
0 0
0
0 10 0 93 0 0 0 1 97 0 0
0 0 -73 0 57 64 0 -65 0 0
0 0 0 0 0 0 0 0 -26
0 0 0 0 0 0 -27 33
0 0 0 0 0 0 0
0 5 0 27 0 0
0 0 0 0 -18
0 60 0 0
0 -7 0
0 -65
0
0 0 0 27 0 0 -35 -67 0 0
0 -88 0 0 0 0 0 0 44
0 0 0 0 0 0 0 0
0 0 57 0 0 -42 0
0 0 0 0 0 0
0 71 0 -66 0
0 0 62 0
0 0 0
0 -32
0
0 93 0 0 0 -24 0 -61 0
0 85 0 0 0 0 0 0
0 -52 0 0 -42 69 0
0 0 0 0 0 0
0 0 0 0 0
0 0 0 0
0 0 0
0 0
0
0 0 0 0 0 0 0 0
0 0 0 0 0 0 0
0 0 -79 0 59 0
0 0 38 0 0
0 -53 0 0
0 42 0
0 0
0
0 -66 -93 0 -80 0 0
0 0 0 66 0 8
0 0 0 0 0
0 0 0 0
0 -39 0
0 0
0
0 0 0 0 0 0
0 0 0 0 0
0 0 0 -24
0 95 82
0 0
0
0 -72 0 14 0
0 0 0 0
0 0 0
0 -57
0
0 0 0 0
0 0 0
0 0
0
0 15 58
0 83
0
0 0
0
0
-423 254 50 -220 376 11 73 223 262 578 -240 46 -649 8 108 307 465 -56 -767 -13
-28.80189723320158 12.434409635771866 3.5833333333333335 -10.932234432234432 22.041080368906456 0.7913725490196079 3.1600508624502432 14.15994628559846 32.77810570381999 22.51600021093709 -10.542191142191141 2.655645796064401 -18.14705931495405 1.0753968253968254 7.421791938039076 11.061748326225677 26.134958791208796 -2.6095148195457787 -178.61242236024844 -0.8907539682539681
